c Result of efficient AIG-to-CNF conversion using package CNF
p cnf 312 1001
-2 3 -228 238 0
-2 3 235 238 0
2 -3 0
2 -238 0
2 228 -235 0
3 -4 -218 0
3 -212 -218 0
3 213 -218 0
-3 218 0
-3 4 212 -213 0
-4 5 126 158 161 0
-4 5 -126 -158 161 0
4 -161 0
4 126 -158 0
4 -5 0
4 -126 158 0
5 6 -119 0
5 -6 119 0
-5 -6 -119 0
-5 6 119 0
-6 7 112 0
6 -7 0
6 -112 0
-7 8 97 0
7 -8 0
7 -97 0
-8 9 82 0
8 -9 0
8 -82 0
-9 10 52 0
9 -10 0
9 -52 0
10 -275 11 -37 0
10 275 11 -22 0
-10 -11 0
-10 -275 37 0
-10 275 22 0
-11 12 18 20 21 0
11 -21 0
11 -12 0
11 -20 0
11 -18 0
-12 272 273 13 15 0
12 -272 0
12 -15 0
12 -13 0
12 -273 0
-13 264 270 271 14 0
13 -14 0
13 -271 0
13 -264 0
13 -270 0
-14 268 269 274 0
14 -268 0
14 -274 0
14 -269 0
-15 260 261 16 17 0
15 -260 0
15 -17 0
15 -16 0
15 -261 0
-16 265 266 267 0
16 -265 0
16 -267 0
16 -266 0
-17 256 257 262 263 0
17 -263 0
17 -262 0
17 -256 0
17 -257 0
-18 254 258 259 19 0
18 -19 0
18 -259 0
18 -254 0
18 -258 0
-19 252 253 0
19 -252 0
19 -253 0
-20 248 255 0
20 -248 0
20 -255 0
-21 249 250 251 0
21 -249 0
21 -251 0
21 -250 0
-22 276 23 0
-22 -276 30 0
22 -276 -30 0
22 276 -23 0
-23 277 24 0
-23 -277 27 0
23 -277 -27 0
23 277 -24 0
-24 278 26 0
-24 -278 25 0
24 -278 -25 0
24 278 -26 0
25 -279 -308 0
25 279 -309 0
-25 279 309 0
-25 -279 308 0
26 -279 -310 0
26 279 -311 0
-26 279 311 0
-26 -279 310 0
27 278 -28 0
27 -278 -29 0
-27 -278 29 0
-27 278 28 0
28 -279 -306 0
28 279 -307 0
-28 279 307 0
-28 -279 306 0
29 -279 -304 0
29 279 -305 0
-29 279 305 0
-29 -279 304 0
30 277 -31 0
30 -277 -34 0
-30 -277 34 0
-30 277 31 0
31 278 -32 0
31 -278 -33 0
-31 -278 33 0
-31 278 32 0
32 -279 -302 0
32 279 -303 0
-32 279 303 0
-32 -279 302 0
33 -279 -300 0
33 279 -301 0
-33 279 301 0
-33 -279 300 0
34 278 -35 0
34 -278 -36 0
-34 -278 36 0
-34 278 35 0
35 -279 -298 0
35 279 -299 0
-35 279 299 0
-35 -279 298 0
36 -279 -296 0
36 279 -297 0
-36 279 297 0
-36 -279 296 0
37 276 -38 0
37 -276 -45 0
-37 -276 45 0
-37 276 38 0
38 277 -39 0
38 -277 -42 0
-38 -277 42 0
-38 277 39 0
39 278 -40 0
39 -278 -41 0
-39 -278 41 0
-39 278 40 0
40 -279 -294 0
40 279 -295 0
-40 279 295 0
-40 -279 294 0
41 -279 -292 0
41 279 -293 0
-41 279 293 0
-41 -279 292 0
42 278 -43 0
42 -278 -44 0
-42 -278 44 0
-42 278 43 0
43 -279 -290 0
43 279 -291 0
-43 279 291 0
-43 -279 290 0
44 -279 -288 0
44 279 -289 0
-44 279 289 0
-44 -279 288 0
45 277 -46 0
45 -277 -49 0
-45 -277 49 0
-45 277 46 0
46 278 -47 0
46 -278 -48 0
-46 -278 48 0
-46 278 47 0
47 -279 -286 0
47 279 -287 0
-47 279 287 0
-47 -279 286 0
48 -279 -284 0
48 279 -285 0
-48 279 285 0
-48 -279 284 0
49 278 -50 0
49 -278 -51 0
-49 -278 51 0
-49 278 50 0
50 -279 -282 0
50 279 -283 0
-50 279 283 0
-50 -279 282 0
51 -279 -280 0
51 279 -281 0
-51 279 281 0
-51 -279 280 0
52 -275 11 -68 0
52 275 11 -53 0
-52 -11 0
-52 -275 68 0
-52 275 53 0
-53 276 54 0
-53 -276 61 0
53 -276 -61 0
53 276 -54 0
-54 277 55 0
-54 -277 58 0
54 -277 -58 0
54 277 -55 0
-55 278 57 0
-55 -278 56 0
55 -278 -56 0
55 278 -57 0
56 -279 -307 0
56 279 -308 0
-56 279 308 0
-56 -279 307 0
57 -279 -309 0
57 279 -310 0
-57 279 310 0
-57 -279 309 0
58 278 -59 0
58 -278 -60 0
-58 -278 60 0
-58 278 59 0
59 -279 -305 0
59 279 -306 0
-59 279 306 0
-59 -279 305 0
60 -279 -303 0
60 279 -304 0
-60 279 304 0
-60 -279 303 0
61 277 -62 0
61 -277 -65 0
-61 -277 65 0
-61 277 62 0
62 278 -63 0
62 -278 -64 0
-62 -278 64 0
-62 278 63 0
63 -279 -301 0
63 279 -302 0
-63 279 302 0
-63 -279 301 0
64 -279 -299 0
64 279 -300 0
-64 279 300 0
-64 -279 299 0
65 278 -66 0
65 -278 -67 0
-65 -278 67 0
-65 278 66 0
66 -279 -297 0
66 279 -298 0
-66 279 298 0
-66 -279 297 0
67 -279 -295 0
67 279 -296 0
-67 279 296 0
-67 -279 295 0
68 276 -69 0
68 -276 -76 0
-68 -276 76 0
-68 276 69 0
69 277 -70 0
69 -277 -73 0
-69 -277 73 0
-69 277 70 0
70 278 -71 0
70 -278 -72 0
-70 -278 72 0
-70 278 71 0
71 -279 -293 0
71 279 -294 0
-71 279 294 0
-71 -279 293 0
72 -279 -291 0
72 279 -292 0
-72 279 292 0
-72 -279 291 0
73 278 -74 0
73 -278 -75 0
-73 -278 75 0
-73 278 74 0
74 -279 -289 0
74 279 -290 0
-74 279 290 0
-74 -279 289 0
75 -279 -287 0
75 279 -288 0
-75 279 288 0
-75 -279 287 0
76 277 -77 0
76 -277 -80 0
-76 -277 80 0
-76 277 77 0
77 278 -78 0
77 -278 -79 0
-77 -278 79 0
-77 278 78 0
78 -279 -285 0
78 279 -286 0
-78 279 286 0
-78 -279 285 0
79 -279 -283 0
79 279 -284 0
-79 279 284 0
-79 -279 283 0
80 278 -81 0
80 -278 279 -280 0
-80 -278 -279 0
-80 278 81 0
-80 -278 280 0
81 -279 -281 0
81 279 -282 0
-81 279 282 0
-81 -279 281 0
82 -275 11 -90 0
82 275 11 -83 0
-82 -11 0
-82 -275 90 0
-82 275 83 0
-83 276 84 0
-83 -276 87 0
83 -276 -87 0
83 276 -84 0
-84 277 85 0
-84 -277 86 0
84 -277 -86 0
84 277 -85 0
-85 -278 28 0
-85 278 25 0
85 278 -25 0
85 -278 -28 0
86 278 -29 0
86 -278 -32 0
-86 -278 32 0
-86 278 29 0
87 277 -88 0
87 -277 -89 0
-87 -277 89 0
-87 277 88 0
88 278 -33 0
88 -278 -35 0
-88 -278 35 0
-88 278 33 0
89 278 -36 0
89 -278 -40 0
-89 -278 40 0
-89 278 36 0
90 276 -91 0
90 -276 -94 0
-90 -276 94 0
-90 276 91 0
91 277 -92 0
91 -277 -93 0
-91 -277 93 0
-91 277 92 0
92 278 -41 0
92 -278 -43 0
-92 -278 43 0
-92 278 41 0
93 278 -44 0
93 -278 -47 0
-93 -278 47 0
-93 278 44 0
94 277 -95 0
94 -277 -96 0
-94 -277 96 0
-94 277 95 0
95 278 -48 0
95 -278 -50 0
-95 -278 50 0
-95 278 48 0
96 278 279 -281 0
96 278 -279 -280 0
-96 -278 0
-96 -279 280 0
-96 279 281 0
97 -275 11 -105 0
97 275 11 -98 0
-97 -11 0
-97 -275 105 0
-97 275 98 0
-98 276 99 0
-98 -276 102 0
98 -276 -102 0
98 276 -99 0
-99 277 100 0
-99 -277 101 0
99 -277 -101 0
99 277 -100 0
-100 -278 59 0
-100 278 56 0
100 278 -56 0
100 -278 -59 0
101 278 -60 0
101 -278 -63 0
-101 -278 63 0
-101 278 60 0
102 277 -103 0
102 -277 -104 0
-102 -277 104 0
-102 277 103 0
103 278 -64 0
103 -278 -66 0
-103 -278 66 0
-103 278 64 0
104 278 -67 0
104 -278 -71 0
-104 -278 71 0
-104 278 67 0
105 276 -106 0
105 -276 -109 0
-105 -276 109 0
-105 276 106 0
106 277 -107 0
106 -277 -108 0
-106 -277 108 0
-106 277 107 0
107 278 -72 0
107 -278 -74 0
-107 -278 74 0
-107 278 72 0
108 278 -75 0
108 -278 -78 0
-108 -278 78 0
-108 278 75 0
109 277 -110 0
109 -277 -111 0
-109 -277 111 0
-109 277 110 0
110 278 -79 0
110 -278 -81 0
-110 -278 81 0
-110 278 79 0
111 278 279 -280 0
-111 280 0
-111 -279 0
-111 -278 0
112 -275 11 -116 0
112 275 11 -113 0
-112 -11 0
-112 -275 116 0
-112 275 113 0
-113 276 114 0
-113 -276 115 0
113 -276 -115 0
113 276 -114 0
-114 -277 31 0
-114 277 27 0
114 277 -27 0
114 -277 -31 0
115 277 -34 0
115 -277 -39 0
-115 -277 39 0
-115 277 34 0
116 276 -117 0
116 -276 -118 0
-116 -276 118 0
-116 276 117 0
117 277 -42 0
117 -277 -46 0
-117 -277 46 0
-117 277 42 0
118 277 -49 0
-118 -277 0
-118 49 0
119 -275 11 -123 0
119 275 11 -120 0
-119 -11 0
-119 -275 123 0
-119 275 120 0
-120 276 121 0
-120 -276 122 0
120 -276 -122 0
120 276 -121 0
-121 -277 62 0
-121 277 58 0
121 277 -58 0
121 -277 -62 0
122 277 -65 0
122 -277 -70 0
-122 -277 70 0
-122 277 65 0
123 276 -124 0
123 -276 -125 0
-123 -276 125 0
-123 276 124 0
124 277 -73 0
124 -277 -77 0
-124 -277 77 0
-124 277 73 0
125 277 -80 0
-125 -277 0
-125 80 0
-126 127 151 0
126 -127 0
126 -151 0
-127 128 144 0
127 -128 0
127 -144 0
-128 129 130 137 0
128 -129 0
128 -137 0
128 -130 0
-129 6 119 0
129 -6 0
129 -119 0
130 -275 11 -134 0
130 275 11 -131 0
-130 -11 0
-130 -275 134 0
-130 275 131 0
-131 276 132 0
-131 -276 133 0
131 -276 -133 0
131 276 -132 0
-132 -277 88 0
-132 277 86 0
132 277 -86 0
132 -277 -88 0
133 277 -89 0
133 -277 -92 0
-133 -277 92 0
-133 277 89 0
134 276 -135 0
134 -276 -136 0
-134 -276 136 0
-134 276 135 0
135 277 -93 0
135 -277 -95 0
-135 -277 95 0
-135 277 93 0
136 277 -96 0
-136 -277 0
-136 96 0
137 -275 11 -141 0
137 275 11 -138 0
-137 -11 0
-137 -275 141 0
-137 275 138 0
-138 276 139 0
-138 -276 140 0
138 -276 -140 0
138 276 -139 0
-139 -277 103 0
-139 277 101 0
139 277 -101 0
139 -277 -103 0
140 277 -104 0
140 -277 -107 0
-140 -277 107 0
-140 277 104 0
141 276 -142 0
141 -276 -143 0
-141 -276 143 0
-141 276 142 0
142 277 -108 0
142 -277 -110 0
-142 -277 110 0
-142 277 108 0
143 277 278 279 -280 0
-143 280 0
-143 -279 0
-143 -277 0
-143 -278 0
-144 145 148 0
144 -145 0
144 -148 0
145 -275 11 -147 0
145 275 11 -146 0
-145 -11 0
-145 -275 147 0
-145 275 146 0
146 276 -30 0
146 -276 -38 0
-146 -276 38 0
-146 276 30 0
147 276 -45 0
-147 -276 0
-147 45 0
148 -275 11 -150 0
148 275 11 -149 0
-148 -11 0
-148 -275 150 0
-148 275 149 0
149 276 -61 0
149 -276 -69 0
-149 -276 69 0
-149 276 61 0
150 276 -76 0
-150 -276 0
-150 76 0
-151 152 155 0
151 -152 0
151 -155 0
152 -275 11 -154 0
152 275 11 -153 0
-152 -11 0
-152 -275 154 0
-152 275 153 0
153 276 -87 0
153 -276 -91 0
-153 -276 91 0
-153 276 87 0
154 276 -94 0
-154 -276 0
-154 94 0
155 -275 11 -157 0
155 275 11 -156 0
-155 -11 0
-155 -275 157 0
-155 275 156 0
156 276 -102 0
156 -276 -106 0
-156 -276 106 0
-156 276 102 0
157 276 -109 0
-157 -276 0
-157 109 0
158 -275 11 -160 0
158 275 11 -159 0
-158 -11 0
-158 -275 160 0
-158 275 159 0
159 276 -115 0
159 -276 -117 0
-159 -276 117 0
-159 276 115 0
160 276 -118 0
-160 -276 0
-160 118 0
-161 162 189 192 208 0
161 -208 0
161 -162 0
161 -192 0
161 -189 0
-162 163 182 0
-162 -163 -180 -187 0
-162 -180 182 0
162 163 -182 0
162 -163 180 0
162 -182 187 0
-163 164 165 172 0
163 -164 0
163 -165 0
163 -172 0
-164 126 158 0
164 -126 0
164 -158 0
-165 166 169 0
165 -166 0
165 -169 0
166 -275 11 -168 0
166 275 11 -167 0
-166 -11 0
-166 -275 168 0
-166 275 167 0
167 276 -122 0
167 -276 -124 0
-167 -276 124 0
-167 276 122 0
168 276 -125 0
-168 -276 0
-168 125 0
169 -275 11 -171 0
169 275 11 -170 0
-169 -11 0
-169 -275 171 0
-169 275 170 0
170 276 -133 0
170 -276 -135 0
-170 -276 135 0
-170 276 133 0
171 276 -136 0
-171 -276 0
-171 136 0
-172 173 176 178 179 0
172 -179 0
172 -178 0
172 -173 0
172 -176 0
173 -275 11 -175 0
173 275 11 -174 0
-173 -11 0
-173 -275 175 0
-173 275 174 0
174 276 -140 0
174 -276 -142 0
-174 -276 142 0
-174 276 140 0
175 276 -143 0
-175 -276 0
-175 143 0
176 -37 177 0
-176 37 0
-176 -177 0
-177 275 11 0
177 -275 0
177 -11 0
178 -90 177 0
-178 90 0
-178 -177 0
179 -68 177 0
-179 68 0
-179 -177 0
180 -164 -166 -169 -181 0
-180 164 0
-180 181 0
-180 169 0
-180 166 0
181 -173 -176 -178 -179 0
-181 179 0
-181 173 0
-181 178 0
-181 176 0
-182 163 183 184 0
182 -163 0
182 -183 0
182 -184 0
183 -105 177 0
-183 105 0
-183 -177 0
-184 185 186 0
184 -185 0
184 -186 0
185 -116 177 0
-185 116 0
-185 -177 0
186 -123 177 0
-186 123 0
-186 -177 0
187 -183 -188 0
-187 183 0
-187 188 0
188 -185 -186 0
-188 185 0
-188 186 0
-189 128 145 148 190 0
-189 -128 -145 -148 190 0
189 -145 148 0
189 128 -148 0
189 -190 0
189 -128 145 0
-190 -129 -130 -137 191 0
-190 129 130 137 191 0
190 -130 137 0
190 129 -137 0
190 -191 0
190 -129 130 0
191 -152 155 0
191 127 -155 0
191 -127 152 0
-191 -127 -152 -155 0
-191 127 152 155 0
-192 193 194 196 0
-192 -194 -195 196 0
192 -196 0
192 -194 195 0
192 -193 194 0
193 -175 177 0
-193 175 0
-193 -177 0
194 -171 177 0
-194 171 0
-194 -177 0
195 -168 177 0
-195 168 0
-195 -177 0
196 -195 197 0
196 195 -207 0
196 -197 207 0
196 193 -207 0
-196 195 197 207 0
-196 -193 -195 -197 -207 0
-197 198 204 0
197 -198 0
197 -204 0
-198 199 203 0
198 -199 0
198 -203 0
-199 182 200 201 202 0
199 -202 0
199 -201 0
199 -182 0
199 -200 0
200 -134 177 0
-200 134 0
-200 -177 0
201 -141 177 0
-201 141 0
-201 -177 0
202 -147 177 0
-202 147 0
-202 -177 0
203 -150 177 0
-203 150 0
-203 -177 0
-204 205 206 0
204 -205 0
204 -206 0
205 -154 177 0
-205 154 0
-205 -177 0
206 -157 177 0
-206 157 0
-206 -177 0
207 -160 177 0
-207 160 0
-207 -177 0
-208 199 203 209 0
-208 -199 -203 209 -210 0
208 199 -203 0
208 -199 203 0
208 -209 0
208 -203 210 0
209 -205 206 0
209 198 -206 0
209 -198 205 0
-209 -198 -205 -206 0
-209 198 205 206 0
210 -182 -202 -211 0
-210 211 0
-210 202 0
-210 182 0
211 -200 -201 0
-211 200 0
-211 201 0
212 7 -112 0
212 -7 112 0
-212 -7 -112 0
-212 7 112 0
213 214 215 216 -217 0
-213 217 0
-213 -216 0
-213 -214 0
-213 -215 0
214 8 -97 0
214 -8 97 0
-214 -8 -97 0
-214 8 97 0
215 9 -82 0
215 -9 82 0
-215 -9 -82 0
-215 9 82 0
216 10 -52 0
216 -10 52 0
-216 -10 -52 0
-216 10 52 0
217 -276 10 0
217 -275 -10 0
-217 276 10 0
-217 275 -10 0
218 97 112 219 -227 0
-218 -97 0
-218 227 0
-218 -219 0
-218 -112 0
-219 119 130 220 225 0
219 -119 0
219 -225 0
219 -220 0
219 -130 0
-220 186 200 221 224 0
220 -186 0
220 -224 0
220 -221 0
220 -200 0
-221 193 194 203 222 0
221 -222 0
221 -203 0
221 -193 0
221 -194 0
-222 204 223 0
222 -204 0
222 -223 0
-223 195 207 0
223 -195 0
223 -207 0
-224 183 185 201 202 0
224 -202 0
224 -201 0
224 -183 0
224 -185 0
-225 137 144 172 226 0
225 -137 0
225 -226 0
225 -172 0
225 -144 0
-226 151 158 165 0
226 -151 0
226 -158 0
226 -165 0
227 52 82 -217 0
-227 217 0
-227 -82 0
-227 -52 0
228 4 212 -229 0
-228 -4 0
-228 -212 0
-228 229 0
229 214 -230 0
-229 -214 0
-229 230 0
230 215 -231 0
230 -215 216 -234 0
-230 -215 -216 0
-230 215 231 0
-230 -215 234 0
231 -216 -232 0
231 216 -233 0
-231 216 233 0
-231 -216 232 0
232 -277 10 0
232 -276 -10 0
-232 277 10 0
-232 276 -10 0
233 -279 10 0
233 -278 -10 0
-233 279 10 0
-233 278 -10 0
234 -275 10 0
-234 275 0
-234 -10 0
235 97 112 219 -236 0
-235 -97 0
-235 236 0
-235 -219 0
-235 -112 0
-236 -82 -216 0
-236 82 237 0
-236 -82 234 0
236 82 -237 0
236 -82 216 -234 0
-237 52 233 0
-237 -52 232 0
237 -52 -232 0
237 52 -233 0
-238 -239 246 0
-238 241 -243 0
-238 241 246 0
-238 -239 -243 0
238 239 -241 0
238 243 -246 0
239 4 212 214 -240 0
-239 240 0
-239 -214 0
-239 -4 0
-239 -212 0
240 215 -216 -234 0
240 215 216 -232 0
-240 -215 0
-240 -216 234 0
-240 216 232 0
241 97 112 219 -242 0
-241 -97 0
-241 242 0
-241 -219 0
-241 -112 0
242 -52 82 -234 0
242 52 82 -232 0
-242 -82 0
-242 -52 234 0
-242 52 232 0
243 4 212 214 -244 0
-243 244 0
-243 -214 0
-243 -4 0
-243 -212 0
244 215 216 -245 0
244 215 -216 -217 0
-244 -215 0
-244 -216 217 0
-244 216 245 0
245 -278 10 0
245 -277 -10 0
-245 278 10 0
-245 277 -10 0
246 97 112 219 -247 0
-246 -97 0
-246 247 0
-246 -219 0
-246 -112 0
247 52 82 -245 0
247 -52 82 -217 0
-247 -82 0
-247 -52 217 0
-247 52 245 0
-312 0
2 0

